Name:		mgval_0.40_1A
Optimal value:	165
#Vehicles:	2
Capacity:	200
Depot Node:	1
#Nodes:		24
#Edges:		20
#Arcs:		35
#Required N:	15
#Required E:	12
#Required A:	21

ReN.	DEMAND	S. COST
N3	23	23
N4	4	4
N5	6	6
N7	12	12
N8	4	4
N9	9	9
N10	5	5
N11	14	14
N12	6	6
N14	13	13
N15	4	4
N20	6	6
N21	6	6
N22	4	4
N23	10	10

ReE.	FROM N.	TO N.	T. COST	DEMAND	S. COST
E9	21	24	4	13	13
E10	15	21	6	14	14
E11	5	6	10	19	19
E12	6	11	7	18	18
E13	17	18	2	4	4
E14	13	17	2	3	3
E15	1	19	4	13	13
E16	20	21	3	12	12
E17	16	17	1	4	4
E18	13	14	5	10	10
E19	6	7	3	12	12
E20	19	20	5	14	14

EDGE	FROM N.	TO N.	T. COST
NrE1	4	5	4
NrE2	1	9	3
NrE3	7	8	4
NrE4	1	11	7
NrE5	15	16	2
NrE6	3	4	5
NrE7	14	18	3
NrE8	23	24	2

ReA.	FROM N.	TO N.	T. COST	DEMAND	S. COST
A15	16	12	3	3	3
A16	6	12	4	6	6
A17	12	16	3	2	2
A18	9	19	5	7	7
A19	19	22	5	6	6
A20	13	7	4	3	3
A21	22	19	5	7	7
A22	9	3	2	2	2
A23	20	1	5	7	7
A24	23	22	2	5	5
A25	7	13	4	2	2
A26	5	11	4	4	4
A27	17	12	4	4	4
A28	15	20	3	8	8
A29	5	1	3	2	2
A30	19	9	5	7	7
A31	12	6	4	7	7
A32	2	4	1	1	1
A33	11	5	4	5	5
A34	1	5	3	2	2
A35	2	5	3	6	6

ARC	FROM N.	TO N.	T. COST
NrA1	3	10	3
NrA2	23	21	5
NrA3	10	2	2
NrA4	21	23	5
NrA5	3	9	2
NrA6	12	17	4
NrA7	22	23	2
NrA8	14	8	4
NrA9	8	14	4
NrA10	4	2	1
NrA11	5	2	3
NrA12	11	12	2
NrA13	12	11	2
NrA14	1	20	5
